52      4       
10      10      10      10      
0       0       0       0       0       15      2       3       5       6       8       10      12      13      14      15      16      17      20      23      37      
6       1       1       1       1       7       4       19      21      24      26      29      30      
5       3       1       1       1       5       9       11      24      33      50      
3       3       2       3       5       6       7       18      22      33      36      47      
3       1       2       2       1       12      19      22      25      27      29      31      32      33      34      46      49      50      
8       5       3       4       1       11      18      21      29      33      35      36      43      45      46      50      51      
7       2       5       1       3       11      27      28      31      32      34      35      40      44      46      48      51      
3       1       3       2       2       8       19      25      31      33      35      44      46      50      
7       1       3       3       4       9       28      30      32      34      36      41      44      47      48      
4       2       4       3       2       7       18      31      32      43      44      46      48      
7       2       2       1       4       5       18      21      31      35      46      
7       2       3       4       3       9       31      32      35      38      43      44      46      48      49      
5       5       3       2       2       7       28      31      32      33      44      46      48      
3       4       1       3       3       7       27      28      41      42      45      47      50      
4       2       2       1       3       7       34      36      41      42      44      49      51      
7       1       3       4       2       5       22      33      46      47      51      
3       4       3       1       2       7       34      40      41      42      44      47      49      
4       1       1       4       1       5       27      40      41      42      49      
1       2       2       2       5       5       38      40      43      47      48      
6       3       4       3       1       4       31      41      47      50      
2       2       2       1       4       4       38      39      40      41      
5       1       4       2       1       4       38      41      43      44      
10      4       2       2       1       4       39      40      41      45      
7       2       1       2       3       3       31      38      40      
10      1       2       3       3       3       38      39      40      
4       3       1       2       4       3       38      44      45      
1       4       1       3       3       2       38      39      
5       2       3       3       3       2       38      43      
6       2       1       4       2       2       38      40      
6       2       2       4       2       2       38      42      
3       4       2       4       2       1       39      
3       2       8       0       4       1       39      
4       5       4       3       3       1       41      
2       1       2       2       2       1       45      
3       1       2       2       3       1       42      
7       5       1       3       2       1       40      
8       1       2       4       1       1       42      
8       3       2       4       5       1       52      
3       4       2       2       2       1       52      
9       3       2       4       2       1       52      
4       1       3       1       2       1       52      
10      3       1       4       3       1       52      
7       4       2       3       5       1       52      
1       2       4       1       3       1       52      
10      2       2       3       2       1       52      
6       3       4       1       3       1       52      
3       4       2       3       2       1       52      
7       4       2       3       2       1       52      
10      2       4       1       1       1       52      
10      1       3       2       2       1       52      
8       2       4       2       2       1       52      
0       0       0       0       0       0       
